Instance Name : rc107
Date : 2022-07-18
Solution
Route 1 : 42 44 41 39 38 36 35 37 40 43
Route 2 : 82 99 52 57 86 74 77 25 24
Route 3 : 92 64 84 85 63 51 76 89 56
Route 4 : 88 2 6 7 45 5 3 1 70 68
Route 5 : 72 71 93 94 67 50 34 91 80
Route 6 : 95 62 31 29 27 28 26 30 32 33
Route 7 : 61 90 81 54 96
Route 8 : 12 14 47 17 16 15 13 11 10 60
Route 9 : 83 22 19 23 21 18 48 49 20 66
Route 10 : 69 98 53 78 73 79 8 46 4 100 55
Route 11 : 65 59 58 75 97 87 9
